Route #1: 47 60 54 35 9 33 10 4 15 31 12 18 63 27 22 8 37 41
Route #2: 13 40 50 24 36 45 51 32 6 3 64 59 55 48
Route #3: 46 34 16 28 52 43 49 39 19 23 44 29 2 58 21
Route #4: 57 25 17 61 62 20 38 56 5
Route #5: 1 11 42 53 14
Route #6: 30 26
Route #7: 7
Route #8: 
Route #9: 
cost 1759.0860224417522
